\Problem name: IloCplex

Maximize
 obj: id558
Subject To
 id109: id1 + id2 + id3 + id4 + id5 + id6 + id7  = 0
 id111: id8 + id9 + id10 + id11 + id12 + id13 + id14  = 5
 id113: id15 + id16 + id17 + id18 + id19 + id20 + id21  = 4
 id115: id22 + id23 + id24 + id25 + id26 + id27 + id28  = 4
 id117: id29 + id30 + id31 + id32 + id33 + id34 + id35  = 4
 id119: id36 + id37 + id38 + id39 + id40 + id41 + id42  = 0
 id121: id43 + id44 + id45 + id46 + id47 + id48 + id49  = 0
 id123: id50 + id51 + id52 + id53 + id54 + id55 + id56  = 0
 id125: id57 + id58 + id59 + id60 + id61 + id62 + id63  = 0
 id127: id64 + id65 + id66 + id67 + id68 + id69 + id70  = 4
 id129: id71 + id72 + id73 + id74 + id75 + id76 + id77  = 4
 id131: id78 + id79 + id80 + id81 + id82 + id83 + id84  = 4
 id133: id85 + id86 + id87 + id88 + id89 + id90 + id91  = 4
 id135: id92 + id93 + id94 + id95 + id96 + id97 + id98  = 4
 id137: id99 + id100 + id101 + id102 + id103 + id104 + id105  = 4
 id140: - id1 - id8 + 2 id36 <= 0
 id143: id1 + id8 - 2 id36 <= 1
 id146: - id2 - id9 + 2 id37 <= 0
 id149: id2 + id9 - 2 id37 <= 1
 id152: - id3 - id10 + 2 id38 <= 0
 id155: id3 + id10 - 2 id38 <= 1
 id158: - id4 - id11 + 2 id39 <= 0
 id161: id4 + id11 - 2 id39 <= 1
 id164: - id5 - id12 + 2 id40 <= 0
 id167: id5 + id12 - 2 id40 <= 1
 id170: - id6 - id13 + 2 id41 <= 0
 id173: id6 + id13 - 2 id41 <= 1
 id176: - id7 - id14 + 2 id42 <= 0
 id179: id7 + id14 - 2 id42 <= 1
 id182: - id1 - id15 + 2 id43 <= 0
 id185: id1 + id15 - 2 id43 <= 1
 id188: - id2 - id16 + 2 id44 <= 0
 id191: id2 + id16 - 2 id44 <= 1
 id194: - id3 - id17 + 2 id45 <= 0
 id197: id3 + id17 - 2 id45 <= 1
 id200: - id4 - id18 + 2 id46 <= 0
 id203: id4 + id18 - 2 id46 <= 1
 id206: - id5 - id19 + 2 id47 <= 0
 id209: id5 + id19 - 2 id47 <= 1
 id212: - id6 - id20 + 2 id48 <= 0
 id215: id6 + id20 - 2 id48 <= 1
 id218: - id7 - id21 + 2 id49 <= 0
 id221: id7 + id21 - 2 id49 <= 1
 id224: - id1 - id22 + 2 id50 <= 0
 id227: id1 + id22 - 2 id50 <= 1
 id230: - id2 - id23 + 2 id51 <= 0
 id233: id2 + id23 - 2 id51 <= 1
 id236: - id3 - id24 + 2 id52 <= 0
 id239: id3 + id24 - 2 id52 <= 1
 id242: - id4 - id25 + 2 id53 <= 0
 id245: id4 + id25 - 2 id53 <= 1
 id248: - id5 - id26 + 2 id54 <= 0
 id251: id5 + id26 - 2 id54 <= 1
 id254: - id6 - id27 + 2 id55 <= 0
 id257: id6 + id27 - 2 id55 <= 1
 id260: - id7 - id28 + 2 id56 <= 0
 id263: id7 + id28 - 2 id56 <= 1
 id266: - id1 - id29 + 2 id57 <= 0
 id269: id1 + id29 - 2 id57 <= 1
 id272: - id2 - id30 + 2 id58 <= 0
 id275: id2 + id30 - 2 id58 <= 1
 id278: - id3 - id31 + 2 id59 <= 0
 id281: id3 + id31 - 2 id59 <= 1
 id284: - id4 - id32 + 2 id60 <= 0
 id287: id4 + id32 - 2 id60 <= 1
 id290: - id5 - id33 + 2 id61 <= 0
 id293: id5 + id33 - 2 id61 <= 1
 id296: - id6 - id34 + 2 id62 <= 0
 id299: id6 + id34 - 2 id62 <= 1
 id302: - id7 - id35 + 2 id63 <= 0
 id305: id7 + id35 - 2 id63 <= 1
 id308: - id8 - id15 + 2 id64 <= 0
 id311: id8 + id15 - 2 id64 <= 1
 id314: - id9 - id16 + 2 id65 <= 0
 id317: id9 + id16 - 2 id65 <= 1
 id320: - id10 - id17 + 2 id66 <= 0
 id323: id10 + id17 - 2 id66 <= 1
 id326: - id11 - id18 + 2 id67 <= 0
 id329: id11 + id18 - 2 id67 <= 1
 id332: - id12 - id19 + 2 id68 <= 0
 id335: id12 + id19 - 2 id68 <= 1
 id338: - id13 - id20 + 2 id69 <= 0
 id341: id13 + id20 - 2 id69 <= 1
 id344: - id14 - id21 + 2 id70 <= 0
 id347: id14 + id21 - 2 id70 <= 1
 id350: - id8 - id22 + 2 id71 <= 0
 id353: id8 + id22 - 2 id71 <= 1
 id356: - id9 - id23 + 2 id72 <= 0
 id359: id9 + id23 - 2 id72 <= 1
 id362: - id10 - id24 + 2 id73 <= 0
 id365: id10 + id24 - 2 id73 <= 1
 id368: - id11 - id25 + 2 id74 <= 0
 id371: id11 + id25 - 2 id74 <= 1
 id374: - id12 - id26 + 2 id75 <= 0
 id377: id12 + id26 - 2 id75 <= 1
 id380: - id13 - id27 + 2 id76 <= 0
 id383: id13 + id27 - 2 id76 <= 1
 id386: - id14 - id28 + 2 id77 <= 0
 id389: id14 + id28 - 2 id77 <= 1
 id392: - id8 - id29 + 2 id78 <= 0
 id395: id8 + id29 - 2 id78 <= 1
 id398: - id9 - id30 + 2 id79 <= 0
 id401: id9 + id30 - 2 id79 <= 1
 id404: - id10 - id31 + 2 id80 <= 0
 id407: id10 + id31 - 2 id80 <= 1
 id410: - id11 - id32 + 2 id81 <= 0
 id413: id11 + id32 - 2 id81 <= 1
 id416: - id12 - id33 + 2 id82 <= 0
 id419: id12 + id33 - 2 id82 <= 1
 id422: - id13 - id34 + 2 id83 <= 0
 id425: id13 + id34 - 2 id83 <= 1
 id428: - id14 - id35 + 2 id84 <= 0
 id431: id14 + id35 - 2 id84 <= 1
 id434: - id15 - id22 + 2 id85 <= 0
 id437: id15 + id22 - 2 id85 <= 1
 id440: - id16 - id23 + 2 id86 <= 0
 id443: id16 + id23 - 2 id86 <= 1
 id446: - id17 - id24 + 2 id87 <= 0
 id449: id17 + id24 - 2 id87 <= 1
 id452: - id18 - id25 + 2 id88 <= 0
 id455: id18 + id25 - 2 id88 <= 1
 id458: - id19 - id26 + 2 id89 <= 0
 id461: id19 + id26 - 2 id89 <= 1
 id464: - id20 - id27 + 2 id90 <= 0
 id467: id20 + id27 - 2 id90 <= 1
 id470: - id21 - id28 + 2 id91 <= 0
 id473: id21 + id28 - 2 id91 <= 1
 id476: - id15 - id29 + 2 id92 <= 0
 id479: id15 + id29 - 2 id92 <= 1
 id482: - id16 - id30 + 2 id93 <= 0
 id485: id16 + id30 - 2 id93 <= 1
 id488: - id17 - id31 + 2 id94 <= 0
 id491: id17 + id31 - 2 id94 <= 1
 id494: - id18 - id32 + 2 id95 <= 0
 id497: id18 + id32 - 2 id95 <= 1
 id500: - id19 - id33 + 2 id96 <= 0
 id503: id19 + id33 - 2 id96 <= 1
 id506: - id20 - id34 + 2 id97 <= 0
 id509: id20 + id34 - 2 id97 <= 1
 id512: - id21 - id35 + 2 id98 <= 0
 id515: id21 + id35 - 2 id98 <= 1
 id518: - id22 - id29 + 2 id99 <= 0
 id521: id22 + id29 - 2 id99 <= 1
 id524: - id23 - id30 + 2 id100 <= 0
 id527: id23 + id30 - 2 id100 <= 1
 id530: - id24 - id31 + 2 id101 <= 0
 id533: id24 + id31 - 2 id101 <= 1
 id536: - id25 - id32 + 2 id102 <= 0
 id539: id25 + id32 - 2 id102 <= 1
 id542: - id26 - id33 + 2 id103 <= 0
 id545: id26 + id33 - 2 id103 <= 1
 id548: - id27 - id34 + 2 id104 <= 0
 id551: id27 + id34 - 2 id104 <= 1
 id554: - id28 - id35 + 2 id105 <= 0
 id557: id28 + id35 - 2 id105 <= 1
Bounds
      id558 = 0
 0 <= id1 <= 1
 0 <= id2 <= 1
 0 <= id3 <= 1
 0 <= id4 <= 1
 0 <= id5 <= 1
 0 <= id6 <= 1
 0 <= id7 <= 1
 0 <= id8 <= 1
 0 <= id9 <= 1
 0 <= id10 <= 1
 0 <= id11 <= 1
 0 <= id12 <= 1
 0 <= id13 <= 1
 0 <= id14 <= 1
 0 <= id15 <= 1
 0 <= id16 <= 1
 0 <= id17 <= 1
 0 <= id18 <= 1
 0 <= id19 <= 1
 0 <= id20 <= 1
 0 <= id21 <= 1
 0 <= id22 <= 1
 0 <= id23 <= 1
 0 <= id24 <= 1
 0 <= id25 <= 1
 0 <= id26 <= 1
 0 <= id27 <= 1
 0 <= id28 <= 1
 0 <= id29 <= 1
 0 <= id30 <= 1
 0 <= id31 <= 1
 0 <= id32 <= 1
 0 <= id33 <= 1
 0 <= id34 <= 1
 0 <= id35 <= 1
 0 <= id36 <= 1
 0 <= id37 <= 1
 0 <= id38 <= 1
 0 <= id39 <= 1
 0 <= id40 <= 1
 0 <= id41 <= 1
 0 <= id42 <= 1
 0 <= id43 <= 1
 0 <= id44 <= 1
 0 <= id45 <= 1
 0 <= id46 <= 1
 0 <= id47 <= 1
 0 <= id48 <= 1
 0 <= id49 <= 1
 0 <= id50 <= 1
 0 <= id51 <= 1
 0 <= id52 <= 1
 0 <= id53 <= 1
 0 <= id54 <= 1
 0 <= id55 <= 1
 0 <= id56 <= 1
 0 <= id57 <= 1
 0 <= id58 <= 1
 0 <= id59 <= 1
 0 <= id60 <= 1
 0 <= id61 <= 1
 0 <= id62 <= 1
 0 <= id63 <= 1
 0 <= id64 <= 1
 0 <= id65 <= 1
 0 <= id66 <= 1
 0 <= id67 <= 1
 0 <= id68 <= 1
 0 <= id69 <= 1
 0 <= id70 <= 1
 0 <= id71 <= 1
 0 <= id72 <= 1
 0 <= id73 <= 1
 0 <= id74 <= 1
 0 <= id75 <= 1
 0 <= id76 <= 1
 0 <= id77 <= 1
 0 <= id78 <= 1
 0 <= id79 <= 1
 0 <= id80 <= 1
 0 <= id81 <= 1
 0 <= id82 <= 1
 0 <= id83 <= 1
 0 <= id84 <= 1
 0 <= id85 <= 1
 0 <= id86 <= 1
 0 <= id87 <= 1
 0 <= id88 <= 1
 0 <= id89 <= 1
 0 <= id90 <= 1
 0 <= id91 <= 1
 0 <= id92 <= 1
 0 <= id93 <= 1
 0 <= id94 <= 1
 0 <= id95 <= 1
 0 <= id96 <= 1
 0 <= id97 <= 1
 0 <= id98 <= 1
 0 <= id99 <= 1
 0 <= id100 <= 1
 0 <= id101 <= 1
 0 <= id102 <= 1
 0 <= id103 <= 1
 0 <= id104 <= 1
 0 <= id105 <= 1
Binaries
 id1  id2  id3  id4  id5  id6  id7  id8  id9  id10  id11  id12  id13  id14 
 id15  id16  id17  id18  id19  id20  id21  id22  id23  id24  id25  id26  id27 
 id28  id29  id30  id31  id32  id33  id34  id35  id36  id37  id38  id39  id40 
 id41  id42  id43  id44  id45  id46  id47  id48  id49  id50  id51  id52  id53 
 id54  id55  id56  id57  id58  id59  id60  id61  id62  id63  id64  id65  id66 
 id67  id68  id69  id70  id71  id72  id73  id74  id75  id76  id77  id78  id79 
 id80  id81  id82  id83  id84  id85  id86  id87  id88  id89  id90  id91  id92 
 id93  id94  id95  id96  id97  id98  id99  id100  id101  id102  id103  id104 
 id105 
End
